db/inputs/2460594971434132673978710043132733595.smt2
(set-logic QF_FP)
(declare-const x0 (_ FloatingPoint 11 53))
(declare-const x1 (_ FloatingPoint 11 53))
(declare-const x2 (_ FloatingPoint 11 53))
(declare-const x3 (_ FloatingPoint 11 53))
(declare-const x4 (_ FloatingPoint 11 53))
(declare-const x5 (_ FloatingPoint 11 53))
(declare-const x6 (_ FloatingPoint 11 53))
(declare-const x7 (_ FloatingPoint 11 53))
(declare-const x8 (_ FloatingPoint 11 53))
(declare-const x9 (_ FloatingPoint 11 53))
(declare-const x10 (_ FloatingPoint 11 53))
(declare-const x11 (_ FloatingPoint 11 53))
(assert (fp.geq (fp.neg (fp.div RNE x2 x4)) (fp.div RNE (fp.sub RNE x10 x7) (fp.div RNE x5 x5))))
(assert (fp.eq (fp.mul RNE (fp.sub RNE x8 x6) (fp.mul RNE x6 x4)) (fp.mul RNE (fp.neg x1) (fp.mul RNE x1 x5))))
(check-sat)
