db/data/2460594971434132673978710043132733595.z3.out
-------------------
2500.160978754
